<instance format="XCSP3" type="CSP">
  <variables>
    <var id="x0"> 4 7 14..16 </var>
    <var id="x1"> 0 14..16 </var>
    <var id="x2"> 0 4 14 15 </var>
    <var id="x3"> 0 7 9 15 </var>
    <var id="x4"> 0 7 9 14 </var>
    <var id="x5"> 0 9 </var>
    <var id="x6"> 4 9 11 14 16 </var>
    <var id="x7"> 0 9 11 16 </var>
    <var id="x8"> 0 3 10 16 </var>
    <var id="x9"> 0 16 </var>
    <var id="x10"> 0..3 14 16 </var>
    <var id="x11"> 0 2 3 6 14 </var>
    <var id="x12"> 0 1 3 10 </var>
    <var id="x13"> 3 6 </var>
    <var id="x14"> 6 14 16 </var>
    <var id="x15"> 2 3 10 16 </var>
    <var id="x16"> 3 10 13 15 </var>
    <var id="x17"> 2 4 13..15 </var>
    <var id="x18"> 2 3 14 15 </var>
    <var id="x19"> 10 13 15 </var>
    <var id="x20"> 2 3 14 </var>
    <var id="x21"> 2 4 10 13..15 </var>
    <var id="x22"> 2..4 10 </var>
    <var id="x23"> 3 12 13 15 </var>
    <var id="x24"> 0 3 4 13 </var>
    <var id="x25"> 0 4 7 12 13 </var>
    <var id="x26"> 0 3 15 </var>
    <var id="x27"> 0 3 4 12 15 </var>
    <var id="x28"> 0 3 7 9 </var>
    <var id="x29"> 4 9 </var>
    <var id="x30"> 3 4 12 </var>
    <var id="x31"> 3 6 7 10 12 13 </var>
    <var id="x32"> 7 13 16 </var>
    <var id="x33"> 10..13 </var>
    <var id="x34"> 6 7 10 12 13 </var>
    <var id="x35"> 3 6 7 </var>
    <var id="x36"> 3 10 13 </var>
    <var id="x37"> 6 11 16 </var>
    <var id="x38"> 3 10..12 16 </var>
    <var id="x39"> 8 12 15 </var>
    <var id="x40"> 1 8 12 15 </var>
    <var id="x41"> 0 4 16 </var>
    <var id="x42"> 0 1 4 9 12 16 </var>
    <var id="x43"> 4 8 15 16 </var>
    <var id="x44"> 0 1 8 15 16 </var>
    <var id="x45"> 0 1 9 </var>
    <var id="x46"> 4 8 12 16 </var>
    <var id="x47"> 4 6 12 16 </var>
    <var id="x48"> 4 14 16 </var>
    <var id="x49"> 4 12 </var>
    <var id="x50"> 3 6 14 </var>
    <var id="x51"> 3 4 6 12 </var>
    <var id="x52"> 3 4 14 </var>
    <var id="x53"> 3 16 17 </var>
    <var id="x54"> 3 10 13 </var>
    <var id="x55"> 3 13 </var>
    <var id="x56"> 0 3 4 10 14 </var>
    <var id="x57"> 4 9 10 13 14 </var>
    <var id="x58"> 3 4 9 13 </var>
    <var id="x59"> 3 4 10 14 </var>
    <var id="x60"> 4 5 9 14 </var>
    <var id="x61"> 0 3 9 13 </var>
    <var id="x62"> 3 7 8 </var>
    <var id="x63"> 3 8 </var>
    <var id="x64"> 4 7 </var>
    <var id="x65"> 2 4 7 8 14 </var>
    <var id="x66"> 2 3 8 14 </var>
    <var id="x67"> 2 4 9 11 </var>
    <var id="x68"> 7 9 </var>
    <var id="x69"> 4 9 11 14 </var>
    <var id="x70"> 3 12 13 17 </var>
    <var id="x71"> 0 3 11 13 16 17 </var>
    <var id="x72"> 0 12 16 </var>
    <var id="x73"> 0 3 12 </var>
    <var id="x74"> 0 12 13 </var>
    <var id="x75"> 0 3 5 </var>
    <var id="x76"> 5 11 16 17 </var>
    <var id="x77"> 3 11 12 16 </var>
    <var id="x78"> 6 7 13 15 </var>
    <var id="x79"> 0 4 13 17 </var>
    <var id="x80"> 0 4 7 13 17 </var>
    <var id="x81"> 4 7 13 15 </var>
    <var id="x82"> 0 1 15 </var>
    <var id="x83"> 0 4 13 </var>
    <var id="x84"> 1 4 7 </var>
    <var id="x85"> 0 13 17 </var>
    <var id="x86"> 6 10 13 15 </var>
    <var id="x87"> 1 6 13 15 </var>
    <var id="x88"> 0 4 10 13 </var>
    <var id="x89"> 0 1 4 6 9 </var>
    <var id="x90"> 0 4 6 10 15 </var>
    <var id="x91"> 4 9 10 13 15 </var>
    <var id="x92"> 4 6 9 13 15 </var>
    <var id="x93"> 0 9 13 </var>
    <var id="x94"> 6 8 15 17 </var>
    <var id="x95"> 4 6 7 16 </var>
    <var id="x96"> 8 15 16 </var>
    <var id="x97"> 6 7 10 15 </var>
    <var id="x98"> 4 6 15 </var>
    <var id="x99"> 4 7 8 10 </var>
    <var id="x100"> 4 6 16 17 </var>
    <var id="x101"> 16 17 </var>
    <var id="x102"> 3 11 16 </var>
    <var id="x103"> 12 16 </var>
    <var id="x104"> 6 12 16 </var>
    <var id="x105"> 2 11 12 </var>
    <var id="x106"> 6 12 15 </var>
    <var id="x107"> 3 5 </var>
    <var id="x108"> 2 15 16 </var>
    <var id="x109"> 2 3 11 12 16 </var>
    <var id="x110"> 6 8 10 13 </var>
    <var id="x111"> 1 6 8 13 17 </var>
    <var id="x112"> 13 17 </var>
    <var id="x113"> 6 10 </var>
    <var id="x114"> 2 10 11 13 </var>
    <var id="x115"> 6 10 13 </var>
    <var id="x116"> 2 10 13 </var>
    <var id="x117"> 1 8 10 11 </var>
    <var id="x118"> 0 4 7 9 12 </var>
    <var id="x119"> 0 3 4 10 12 </var>
    <var id="x120"> 0 4 9 10 12 13 </var>
    <var id="x121"> 0 3 9 10 13 </var>
    <var id="x122"> 4 9 10 13 </var>
    <var id="x123"> 3 4 9 12 13 </var>
    <var id="x124"> 3 4 7 10 </var>
    <var id="x125"> 0 3 9 13 </var>
    <var id="x126"> 3 10 13 16 </var>
    <var id="x127"> 3 10 12 </var>
    <var id="x128"> 2 9 10 12 13 </var>
    <var id="x129"> 2 9 10 13 16 </var>
    <var id="x130"> 3 9 12 13 </var>
    <var id="x131"> 3 8 10 </var>
    <var id="x132"> 2 3 8 10 12 16 </var>
    <var id="x133"> 2 3 9 13 16 </var>
    <var id="x134"> 0 12 13 </var>
    <var id="x135"> 0 9 12 </var>
    <var id="x136"> 2 8 13 14 </var>
    <var id="x137"> 0 2 9 14 </var>
    <var id="x138"> 0 9 13 </var>
    <var id="x139"> 2 9 13 14 </var>
    <var id="x140"> 8 14 </var>
  </variables>
  <constraints>
    <group>
      <allDifferent> %... </allDifferent>
      <args> x0 x1 x2 x3 x4 x5 x6 x7 </args>
      <args> x8 x9 x10 x11 x12 x13 x14 x15 </args>
      <args> x16 x17 x18 x19 x20 x21 x22 </args>
      <args> x23 x24 x25 x26 x27 x28 x29 x30 </args>
      <args> x31 x32 x33 x34 x35 x36 x37 x38 </args>
      <args> x39 x40 x41 x42 x43 x44 x45 x46 </args>
      <args> x47 x48 x49 x50 x51 x52 x53 </args>
      <args> x54 x55 x56 x57 x58 x59 x60 x61 </args>
      <args> x62 x63 x64 x65 x66 x67 x68 x69 </args>
      <args> x70 x71 x72 x73 x74 x75 x76 x77 </args>
      <args> x78 x79 x80 x81 x82 x83 x84 x85 </args>
      <args> x86 x87 x88 x89 x90 x91 x92 x93 </args>
      <args> x94 x95 x96 x97 x98 x99 x100 x101 </args>
      <args> x102 x103 x104 x105 x106 x107 x108 x109 </args>
      <args> x110 x111 x112 x113 x114 x115 x116 x117 </args>
      <args> x118 x119 x120 x121 x122 x123 x124 x125 </args>
      <args> x126 x127 x128 x129 x130 x131 x132 x133 </args>
      <args> x134 x135 x136 x137 x138 x139 x140 </args>
      <args> x16 x31 x39 x54 x62 x78 x86 x110 </args>
      <args> x23 x40 x55 x63 x70 x87 x94 x111 </args>
      <args> x8 x24 x41 x71 x79 x88 x102 x126 </args>
      <args> x9 x25 x64 x80 x103 x112 x134 </args>
      <args> x42 x47 x72 x89 x95 x104 x118 x135 </args>
      <args> x0 x17 x32 x43 x48 x65 x81 x136 </args>
      <args> x1 x10 x18 x26 x44 x66 x82 x96 </args>
      <args> x2 x27 x56 x73 x90 x113 x119 x127 </args>
      <args> x33 x49 x67 x83 x105 x114 x120 x128 </args>
      <args> x3 x19 x34 x68 x74 x97 x106 x115 </args>
      <args> x4 x11 x20 x28 x35 x50 x75 x137 </args>
      <args> x5 x12 x36 x45 x107 x121 x138 </args>
      <args> x21 x57 x91 x108 x116 x122 x129 x139 </args>
      <args> x13 x51 x58 x92 x98 x123 x130 </args>
      <args> x52 x59 x84 x99 x117 x124 x131 x140 </args>
      <args> x6 x14 x29 x37 x60 x69 x76 x100 </args>
      <args> x15 x22 x30 x38 x46 x77 x109 x132 </args>
      <args> x7 x53 x61 x85 x93 x101 x125 x133 </args>
    </group>
  </constraints>
</instance>

